50
16721

243 230
53 481
727 833
447 936
253 482
825 230
929 629
284 588
324 501
733 386
433 243
271 177
191 902
521 957
450 494
933 27
544 318
396 783
418 970
406 24
643 802
441 231
57 470
505 101
958 597
33 303
658 721
205 613
916 686
830 807
636 394
848 744
51 564
565 256
932 498
420 790
818 737
290 632
777 261
451 393
971 609
462 607
245 771
800 629
591 3
648 39
975 69
223 153
179 636
768 464
